c uprop, v00.0, 
c reading from data/prog761.c.cnf
c done reading: 0.003403
p cnf 127 476
-69 -74 0
-74 -77 0
69 74 77 0
69 77 -83 0
-69 -77 -83 0
-69 77 83 0
69 -77 83 0
74 -87 0
-87 -90 0
-74 87 90 0
-74 90 -96 0
74 -90 -96 0
74 90 96 0
-74 -90 96 0
87 -100 0
-87 100 0
-87 -103 0
87 103 0
100 -109 0
-100 109 0
-71 -100 0
71 100 0
-79 109 0
79 -109 0
-92 -109 0
92 109 0
-66 79 0
66 -79 0
-63 -79 0
63 79 0
-60 66 0
60 -66 0
-57 -66 0
57 66 0
-54 69 0
54 -69 0
52 -77 0
-52 77 0
49 -90 0
-49 90 0
52 -81 0
69 -81 0
-52 -69 81 0
-52 -69 -85 0
52 69 -85 0
-52 69 85 0
52 -69 85 0
-49 -77 94 0
-49 -81 94 0
-77 -81 94 0
49 77 -94 0
49 81 -94 0
77 81 -94 0
49 -94 -98 0
77 -94 -98 0
81 -94 -98 0
-49 94 98 0
-77 94 98 0
-81 94 98 0
-49 -77 -81 98 0
49 77 81 -98 0
-90 -94 0
-90 105 0
-94 105 0
90 94 -105 0
-50 -69 0
-50 -77 0
50 69 77 0
-46 69 77 0
-46 -69 -77 0
46 -69 77 0
46 69 -77 0
-47 50 0
-47 -90 0
47 -50 90 0
-45 -50 90 0
-45 50 -90 0
45 50 90 0
45 -50 -90 0
47 -111 0
-54 -111 0
-47 54 111 0
-47 54 -112 0
47 -54 -112 0
47 54 112 0
-47 -54 112 0
111 -113 0
-85 -113 0
85 -111 113 0
85 -111 -114 0
-85 111 -114 0
85 111 114 0
-85 -111 114 0
113 -115 0
-98 -115 0
98 -113 115 0
98 -113 -116 0
-98 113 -116 0
98 113 116 0
-98 -113 116 0
115 -117 0
-105 -117 0
105 -115 117 0
105 -115 -118 0
-105 115 -118 0
105 115 118 0
-105 -115 118 0
117 -119 0
-117 119 0
-75 -117 0
75 117 0
-84 119 0
84 -119 0
-88 -119 0
88 119 0
84 -97 0
-84 97 0
-84 -101 0
84 101 0
97 -104 0
-97 104 0
-97 -110 0
97 110 0
-72 104 0
72 -104 0
-80 -104 0
80 104 0
72 -93 0
-72 93 0
-67 -72 0
67 72 0
-64 -107 0
-64 -121 0
64 107 121 0
-61 107 121 0
-61 -107 -121 0
61 -107 121 0
61 107 -121 0
-58 64 0
-58 -123 0
58 -64 123 0
-64 123 -124 0
64 -123 -124 0
64 123 124 0
-64 -123 124 0
-55 58 0
-55 -126 0
55 -58 126 0
-58 126 -127 0
58 -126 -127 0
58 126 127 0
-58 -126 127 0
-44 55 0
-43 -44 0
43 44 -55 0
-42 43 -55 0
-42 -43 55 0
42 43 55 0
42 -43 -55 0
-41 44 0
-40 -41 0
40 41 -44 0
-38 40 -44 0
-38 -40 44 0
38 40 44 0
38 -40 -44 0
-37 41 0
-36 -37 0
36 37 -41 0
-35 36 -41 0
-35 -36 41 0
35 36 41 0
35 -36 -41 0
-34 37 0
-33 -34 0
33 34 -37 0
-31 33 -37 0
-31 -33 37 0
31 33 37 0
31 -33 -37 0
-30 121 0
-30 107 0
30 -107 -121 0
-29 -107 -121 0
-29 107 121 0
29 107 -121 0
29 -107 121 0
28 -121 -123 0
28 -30 -123 0
28 -30 -121 0
-28 121 123 0
-28 30 123 0
-28 30 121 0
-27 -28 123 0
-27 -28 121 0
-27 -28 30 0
27 28 -123 0
27 28 -121 0
27 28 -30 0
27 -30 -121 -123 0
-27 30 121 123 0
26 -123 -126 0
26 -28 -126 0
26 -28 -123 0
-26 123 126 0
-26 28 126 0
-26 28 123 0
-25 -26 126 0
-25 -26 123 0
-25 -26 28 0
25 26 -126 0
25 26 -123 0
25 26 -28 0
25 -28 -123 -126 0
-25 28 123 126 0
24 -43 -126 0
24 -26 -43 0
24 -26 -126 0
-24 43 126 0
-24 26 43 0
-24 26 126 0
-23 -24 43 0
-23 -24 126 0
-23 -24 26 0
23 24 -43 0
23 24 -126 0
23 24 -26 0
23 -26 -43 -126 0
-23 26 43 126 0
22 -40 -43 0
22 -24 -40 0
22 -24 -43 0
-22 40 43 0
-22 24 40 0
-22 24 43 0
-21 -22 40 0
-21 -22 43 0
-21 -22 24 0
21 22 -40 0
21 22 -43 0
21 22 -24 0
21 -24 -40 -43 0
-21 24 40 43 0
20 -36 -40 0
20 -22 -36 0
20 -22 -40 0
-20 36 40 0
-20 22 36 0
-20 22 40 0
-20 36 -68 0
-20 40 -68 0
-20 22 -68 0
20 -36 68 0
20 -40 68 0
20 -22 68 0
-22 -36 -40 68 0
22 36 40 -68 0
-33 -36 76 0
-20 -33 76 0
-20 -36 76 0
33 36 -76 0
20 33 -76 0
20 36 -76 0
33 -76 -89 0
36 -76 -89 0
20 -76 -89 0
-33 76 89 0
-36 76 89 0
-20 76 89 0
-20 -33 -36 89 0
20 33 36 -89 0
-19 33 0
-19 76 0
19 -33 -76 0
-18 -33 -76 0
-18 33 76 0
18 -33 76 0
18 33 -76 0
-17 23 0
-17 107 0
17 -23 -107 0
-16 -23 -107 0
-16 23 107 0
16 -23 107 0
16 23 -107 0
15 -21 -121 0
15 -17 -21 0
15 -17 -121 0
-15 21 121 0
-15 17 21 0
-15 17 121 0
-15 21 -106 0
-15 -106 121 0
-15 17 -106 0
15 -21 106 0
15 106 -121 0
15 -17 106 0
-17 -21 106 -121 0
17 21 -106 121 0
-68 120 -123 0
-15 -68 120 0
-15 120 -123 0
68 -120 123 0
15 68 -120 0
15 -120 123 0
68 -120 -122 0
-120 -122 123 0
15 -120 -122 0
-68 120 122 0
120 122 -123 0
-15 120 122 0
-15 -68 122 -123 0
15 68 -122 123 0
-89 125 -126 0
-89 -120 125 0
-120 125 -126 0
89 -125 126 0
89 120 -125 0
120 -125 126 0
-89 125 0
125 -126 0
-120 125 0
-89 -120 -126 0
-18 39 -43 0
-18 39 -125 0
39 -43 -125 0
18 -39 43 0
18 -39 125 0
-39 43 125 0
-18 39 0
39 -43 0
39 -125 0
-18 -43 -125 0
-19 32 -40 0
-19 32 -39 0
32 -39 -40 0
19 -32 40 0
19 -32 39 0
-32 39 40 0
-19 32 0
32 -40 0
32 -39 0
-19 -39 -40 0
-14 36 0
-14 32 0
14 -32 -36 0
32 -36 0
-32 36 0
-14 -33 0
14 -33 0
-14 33 0
-13 -107 0
-13 -29 0
13 29 107 0
-12 29 107 0
-12 -29 -107 0
12 29 -107 0
12 -29 107 0
-11 13 0
-11 -27 0
11 -13 27 0
-10 -13 27 0
-10 13 -27 0
10 13 27 0
10 -13 -27 0
-9 11 0
-9 -25 0
9 -11 25 0
-8 -11 25 0
-8 11 -25 0
8 11 25 0
8 -11 -25 0
-7 9 0
-7 -16 0
7 -9 16 0
-6 -9 16 0
-6 9 -16 0
6 9 16 0
6 -9 -16 0
-5 7 0
-5 -106 0
5 -7 106 0
-4 -7 106 0
-4 7 -106 0
4 7 106 0
4 -7 -106 0
-3 5 0
-3 -122 0
3 -5 122 0
-5 -73 122 0
5 -73 -122 0
5 73 122 0
-5 73 -122 0
3 -82 0
-3 82 0
-3 -86 0
3 86 0
82 -95 0
-82 95 0
-82 -99 0
82 99 0
95 -102 0
-95 102 0
-95 -108 0
95 108 0
-70 102 0
70 -102 0
-78 -102 0
78 102 0
70 -91 0
-70 91 0
-65 -70 0
65 70 0
-62 91 0
62 -91 0
-59 -91 0
59 91 0
-56 69 0
-56 107 0
56 -69 -107 0
-69 -107 0
69 107 0
-29 53 -77 0
53 -56 -77 0
-29 53 -56 0
29 -53 77 0
-53 56 77 0
29 -53 56 0
53 -77 0
-29 53 0
53 -56 0
-29 -56 -77 0
-27 51 -90 0
51 -53 -90 0
-27 51 -53 0
27 -51 90 0
-51 53 90 0
27 -51 53 0
-51 90 0
27 -51 0
-51 53 0
27 53 90 0
-25 48 -54 0
48 -51 -54 0
-25 48 -51 0
25 -48 54 0
-48 51 54 0
25 -48 51 0
-48 54 0
25 -48 0
-48 51 0
25 51 54 0
2 -16 -85 0
2 -48 -85 0
2 -16 -48 0
-2 16 85 0
-2 48 85 0
-2 16 48 0
2 -85 0
2 -16 0
2 -48 0
-16 -48 -85 0
1 -98 -106 0
1 -2 -98 0
1 -2 -106 0
-1 98 106 0
-1 2 98 0
-1 2 106 0
-1 98 0
-1 106 0
-1 2 0
2 98 106 0
-105 -122 0
-1 -105 0
-1 -122 0
1 105 122 0
